(define-fun-rec
  v4
  ((x Int) (y Int) (z Int)) Int (ite (<= x 0) z (v4 (- x 1) y z)))
(define-fun
  j4
  ((x Int)) Int x)
(define-fun
  h4
  () Int (+ 2 (+ 2 2)))
(define-fun
  h3
  ((x Int)) Int x)
(define-fun
  h2
  ((x Int) (y Int)) Int y)
(define-fun
  h0
  ((x Int)) Int x)
(define-fun
  g4
  ((x Int) (y Int)) Int y)
(define-fun
  g3
  ((x Int)) Int (mod x 2))
(define-fun
  g2
  ((x Int)) Int x)
(define-fun
  g1
  ((x Int)) Int x)
(define-fun
  g0
  ((x Int)) Int x)
(define-fun
  f4
  ((x Int) (y Int)) Int (* (+ (mod (div y x) 2) 1) x))
(define-fun-rec
  u4
  ((x Int) (y Int) (z Int)) Int
  (ite (<= x 0) y (f4 (u4 (- x 1) y z) (v4 (- x 1) y z))))
(define-fun
  w4
  ((x Int)) Int (u4 h4 1 x))
(define-fun
  f3
  ((x Int)) Int (+ (- (w4 x) 1) x))
(define-fun-rec
  u3
  ((x Int) (y Int)) Int (ite (<= x 0) y (f3 (u3 (- x 1) y))))
(define-fun
  v3
  ((x Int)) Int (u3 (g3 x) x))
(define-fun
  fast
  ((x Int)) Int (+ (div (- (v3 x) x) 2) 1))
(define-fun
  f2
  ((x Int) (y Int)) Int (- y 1))
(define-fun-rec
  u2
  ((x Int) (y Int)) Int (ite (<= x 0) y (f2 (u2 (- x 1) y) x)))
(define-fun-rec
  u1
  ((x Int) (y Int)) Int (ite (<= x 0) y (u2 (u1 (- x 1) y) x)))
(define-fun
  v1
  ((x Int)) Int (u1 x 0))
(define-fun-rec
  u0
  ((x Int) (y Int)) Int (ite (<= x 0) y (v1 (u0 (- x 1) y))))
(define-fun
  v0
  ((x Int)) Int (u0 x x))
(define-fun
  small
  ((x Int)) Int (+ (div (v0 x) 2) 1))
(assert-not
  (forall ((c Int)) (or (not (>= c 0)) (= (small c) (fast c)))))
